Problem:    
Rows:       256
Columns:    89 (72 integer, 72 binary)
Non-zeros:  924
Status:     INTEGER OPTIMAL
Objective:  value = 52.0507 (MINimum)

   No.   Row name        Activity     Lower bound   Upper bound
------ ------------    ------------- ------------- -------------
     1 r.5                   1076.05             0               
     2 r.6                  -1004.81      -1014.37               
     3 r.7                   52.0507             0               
     4 r.8                   30.1387      -1012.02               
     5 r.9                   52.0507             0               
     6 r.10                  42.2251      -1013.79               
     7 r.11                  1076.05             0               
     8 r.12                 -1010.52      -1012.01               
     9 r.13                  52.0507             0               
    10 r.14                  42.2251      -1007.86               
    11 r.15                  1076.05             0               
    12 r.16                 -981.775      -1007.27               
    13 r.17                  52.0507             0               
    14 r.18                  25.4948      -1015.01               
    15 r.19                  1076.05             0               
    16 r.20                 -998.505      -1011.99               
    17 r.21                  1076.05             0               
    18 r.22                 -1014.43      -1015.93               
    19 r.23                  52.0507             0               
    20 r.24                  30.1387      -1014.41               
    21 r.25                  1076.05             0               
    22 r.26                 -971.949      -1002.09               
    23 r.27                  52.0507             0               
    24 r.28                  52.0507      -1014.18               
    25 r.29                  52.0507             0               
    26 r.30                  52.0507      -1002.28               
    27 r.31                  1076.05             0               
    28 r.32                 -971.949      -1014.17               
    29 r.33                  1076.05             0               
    30 r.34                 -1022.51      -1022.51               
    31 r.35                  52.0507             0               
    32 r.36                   1.4915      -1020.61               
    33 r.37                        1             1             = 
    34 r.38                        1             1             = 
    35 r.39                        1             1             = 
    36 r.40                        1             1             = 
    37 r.41                        1             1             = 
    38 r.42                        1             1             = 
    39 r.43                        1             1             = 
    40 r.44                        1             1             = 
    41 r.45                     1025             2               
    42 r.46                    -1025         -1025               
    43 r.47                  2071.03      -1013.79               
    44 r.48                     1025             2               
    45 r.49                    -1025         -1025               
    46 r.50                  2031.34      -1012.01               
    47 r.51                     1025             2               
    48 r.52                    -1025         -1025               
    49 r.53                  2071.03      -1007.86               
    50 r.54                     1025             2               
    51 r.55                    -1025         -1025               
    52 r.56                  2060.09      -1007.27               
    53 r.57                     1025             2               
    54 r.58                    -1025         -1025               
    55 r.59                   2054.3      -1015.01               
    56 r.60                     1025             2               
    57 r.61                    -1025         -1025               
    58 r.62                  2043.36      -1011.99               
    59 r.63                        2             2               
    60 r.64                       -2         -1025               
    61 r.65                  -9.6267      -1015.93               
    62 r.66                     1024             2               
    63 r.67                    -1024         -1025               
    64 r.68                     2048      -1014.41               
    65 r.69                 -991.142      -1002.09               
    66 r.70                  32.8579      -1014.18               
    67 r.71                 -1002.09      -1002.09               
    68 r.72                   21.912      -1014.18               
    69 r.73                     1025             2               
    70 r.74                    -1025         -1025               
    71 r.75                  2080.86      -1002.28               
    72 r.76                     1025             2               
    73 r.77                    -1025         -1025               
    74 r.78                  2069.91      -1014.17               
    75 r.79                  8.07457             0               
    76 r.80                  28.6472             0               
    77 r.81                  8.07457             0               
    78 r.82                  28.6472             0               
    79 r.83                     1025             2               
    80 r.84                    -1025         -1025               
    81 r.85                  2024.97        9.6267               
    82 r.86                     1025             2               
    83 r.87                    -1025         -1025               
    84 r.88                  2064.66       11.9787               
    85 r.89                     1024             2               
    86 r.90                    -1024         -1025               
    87 r.91                     2048      -1007.86               
    88 r.92                        2             2               
    89 r.93                       -2         -1025               
    90 r.94                 -995.257      -1007.27               
    91 r.95                     1024             2               
    92 r.96                    -1024         -1025               
    93 r.97                  2031.27      -1015.01               
    94 r.98                        2             2               
    95 r.99                       -2         -1025               
    96 r.100                -1011.99      -1011.99               
    97 r.101                    1025             2               
    98 r.102                   -1025         -1025               
    99 r.103                 2015.34      -1015.93               
   100 r.104                    1025             2               
   101 r.105                   -1025         -1025               
   102 r.106                 2064.66      -1014.41               
   103 r.107                    1025             2               
   104 r.108                   -1025         -1025               
   105 r.109                 2057.83      -1002.09               
   106 r.110                    1025             2               
   107 r.111                   -1025         -1025               
   108 r.112                 2086.57      -1014.18               
   109 r.113                  9.8256      -1002.28               
   110 r.114                -1014.17      -1014.17               
   111 r.115                 38.5683      -1002.28               
   112 r.116                -985.432      -1014.17               
   113 r.117                 40.7336             0               
   114 r.118                       0             0               
   115 r.119                 40.7336             0               
   116 r.120                       0             0               
   117 r.121                    1025             2               
   118 r.122                   -1025         -1025               
   119 r.123                 2024.97        9.6267               
   120 r.124                    1025             2               
   121 r.125                   -1025         -1025               
   122 r.126                 2035.91       11.9787               
   123 r.127                    1024             2               
   124 r.128                   -1024         -1025               
   125 r.129                    2048       10.2147               
   126 r.130                       2             2               
   127 r.131                      -2         -1025               
   128 r.132                 995.257       11.9909               
   129 r.133                 16.7303             0               
   130 r.134                       0             0               
   131 r.135                 16.7303             0               
   132 r.136                       0             0               
   133 r.137                    1025             2               
   134 r.138                   -1025         -1025               
   135 r.139                 2015.34      -1015.93               
   136 r.140                    1025             2               
   137 r.141                   -1025         -1025               
   138 r.142                 2035.91      -1014.41               
   139 r.143                    1025             2               
   140 r.144                   -1025         -1025               
   141 r.145                 2057.83      -1002.09               
   142 r.146                    1025             2               
   143 r.147                   -1025         -1025               
   144 r.148                 2057.83      -1014.18               
   145 r.149                  9.8256      -1002.28               
   146 r.150                -1014.17      -1014.17               
   147 r.151                  9.8256      -1002.28               
   148 r.152                -1014.17      -1014.17               
   149 r.153                 40.7336             0               
   150 r.154                 24.0033             0               
   151 r.155                 40.7336             0               
   152 r.156                 24.0033             0               
   153 r.157                    1025             2               
   154 r.158                   -1025         -1025               
   155 r.159                  2041.7        9.6267               
   156 r.160                    1025             2               
   157 r.161                   -1025         -1025               
   158 r.162                 2052.64       11.9787               
   159 r.163                    1024             2               
   160 r.164                   -1024         -1025               
   161 r.165                 2064.73       10.2147               
   162 r.166                       2             2               
   163 r.167                      -2         -1025               
   164 r.168                 1011.99       11.9909               
   165 r.169                    1025             2               
   166 r.170                   -1025         -1025               
   167 r.171                 2032.07      -1015.93               
   168 r.172                    1025             2               
   169 r.173                   -1025         -1025               
   170 r.174                 2052.64      -1014.41               
   171 r.175                    1025             2               
   172 r.176                   -1025         -1025               
   173 r.177                 2074.56      -1002.09               
   174 r.178                    1025             2               
   175 r.179                   -1025         -1025               
   176 r.180                 2074.56      -1014.18               
   177 r.181                 26.5559      -1002.28               
   178 r.182                -997.444      -1014.17               
   179 r.183                 26.5559      -1002.28               
   180 r.184                -997.444      -1014.17               
   181 r.185                 24.0033             0               
   182 r.186                 11.9909             0               
   183 r.187                 24.0033             0               
   184 r.188                 11.9909             0               
   185 r.189                       2             2               
   186 r.190                      -2         -1025               
   187 r.191                  9.6267        9.6267               
   188 r.192                    1024             2               
   189 r.193                   -1024         -1025               
   190 r.194                    2048       11.9787               
   191 r.195                    1025             2               
   192 r.196                   -1025         -1025               
   193 r.197                 2080.66       10.2147               
   194 r.198                    1025             2               
   195 r.199                   -1025         -1025               
   196 r.200                 2031.34       11.9909               
   197 r.201                    1025             2               
   198 r.202                   -1025         -1025               
   199 r.203                 2080.66       16.1387               
   200 r.204                    1025             2               
   201 r.205                   -1025         -1025               
   202 r.206                 2060.09       16.7303               
   203 r.207                    1025             2               
   204 r.208                   -1025         -1025               
   205 r.209                 2063.93       8.98681               
   206 r.210                    1025             2               
   207 r.211                   -1025         -1025               
   208 r.212                 2043.36       12.0124               
   209 r.213                -981.515      -1002.09               
   210 r.214                 42.4846      -1014.18               
   211 r.215                -1002.09      -1002.09               
   212 r.216                  21.912      -1014.18               
   213 r.217                 42.4846      -1002.28               
   214 r.218                -981.515      -1014.17               
   215 r.219                  21.912      -1002.28               
   216 r.220                -1002.09      -1014.17               
   217 r.221                       0             0               
   218 r.222                 28.6472             0               
   219 r.223                       0             0               
   220 r.224                 28.6472             0               
   221 r.225                    1025             2               
   222 r.226                   -1025         -1025               
   223 r.227                 2038.17       10.2147               
   224 r.228                    1025             2               
   225 r.229                   -1025         -1025               
   226 r.230                 2009.43       11.9909               
   227 r.231                    1025             2               
   228 r.232                   -1025         -1025               
   229 r.233                 2038.17       16.1387               
   230 r.234                    1025             2               
   231 r.235                   -1025         -1025               
   232 r.236                 2038.17       16.7303               
   233 r.237                    1025             2               
   234 r.238                   -1025         -1025               
   235 r.239                 2021.44       8.98681               
   236 r.240                    1025             2               
   237 r.241                   -1025         -1025               
   238 r.242                 2021.44       12.0124               
   239 r.243                    1025             2               
   240 r.244                   -1025         -1025               
   241 r.245                    2048      -1002.28               
   242 r.246                    1025             2               
   243 r.247                   -1025         -1025               
   244 r.248                    2048      -1014.17               
   245 r.249                    1025             2               
   246 r.250                   -1025         -1025               
   247 r.251                 2015.14        9.6267               
   248 r.252                    1025             2               
   249 r.253                   -1025         -1025               
   250 r.254                 2026.09       11.9787               
   251 r.255                    1025             2               
   252 r.256                   -1025         -1025               
   253 r.257                    2048        21.912               
   254 r.258                    1025             2               
   255 r.259                   -1025         -1025               
   256 r.260                    2048        9.8231               

   No. Column name       Activity     Lower bound   Upper bound
------ ------------    ------------- ------------- -------------
     1 tt                    52.0507             0               
     2 s_1_1        *              1             0             1 
     3 t_1_1                 32.8579             0               
     4 s_1_6        *              1             0             1 
     5 s_2_1        *              0             0             1 
     6 t_2_1                  21.912             0               
     7 s_2_6        *              0             0             1 
     8 s_1_2        *              0             0             1 
     9 t_1_2                  9.8256             0               
    10 s_1_7        *              0             0             1 
    11 s_2_2        *              1             0             1 
    12 t_2_2                 38.5683             0               
    13 s_2_7        *              1             0             1 
    14 s_1_3        *              0             0             1 
    15 t_1_3                  9.8256             0               
    16 s_2_3        *              1             0             1 
    17 t_2_3                  9.8256             0               
    18 s_1_4        *              0             0             1 
    19 t_1_4                 26.5559             0               
    20 s_2_4        *              1             0             1 
    21 t_2_4                 26.5559             0               
    22 s_1_5        *              1             0             1 
    23 t_1_5                 42.4846             0               
    24 s_2_5        *              0             0             1 
    25 t_2_5                  21.912             0               
    26 t_1_6                       0             0               
    27 t_2_6                       0             0               
    28 t_1_7                       0             0               
    29 t_2_7                       0             0               
    30 s_1_8        *              1             0             1 
    31 t_1_8                 50.5592             0               
    32 s_2_8        *              0             0             1 
    33 t_2_8                 50.5592             0               
    34 r_1_1_2      *              1             0             1 
    35 u_1_1_2      *              0             0             1 
    36 r_2_1_2      *              1             0             1 
    37 u_2_1_2      *              0             0             1 
    38 r_1_1_3      *              1             0             1 
    39 u_1_1_3      *              0             0             1 
    40 r_2_1_3      *              1             0             1 
    41 u_2_1_3      *              0             0             1 
    42 r_1_1_4      *              1             0             1 
    43 u_1_1_4      *              0             0             1 
    44 r_2_1_4      *              1             0             1 
    45 u_2_1_4      *              0             0             1 
    46 r_1_1_5      *              0             0             1 
    47 u_1_1_5      *              0             0             1 
    48 r_2_1_5      *              1             0             1 
    49 u_2_1_5      *              0             0             1 
    50 r_1_1_7      *              1             0             1 
    51 u_1_1_7      *              0             0             1 
    52 r_2_1_7      *              1             0             1 
    53 u_2_1_7      *              0             0             1 
    54 r_1_2_3      *              1             0             1 
    55 u_1_2_3      *              0             0             1 
    56 r_2_2_3      *              0             0             1 
    57 u_2_2_3      *              1             0             1 
    58 r_1_2_4      *              1             0             1 
    59 u_1_2_4      *              0             0             1 
    60 r_2_2_4      *              0             0             1 
    61 u_2_2_4      *              1             0             1 
    62 r_1_2_5      *              1             0             1 
    63 u_1_2_5      *              0             0             1 
    64 r_2_2_5      *              1             0             1 
    65 u_2_2_5      *              0             0             1 
    66 r_1_2_6      *              1             0             1 
    67 u_1_2_6      *              0             0             1 
    68 r_2_2_6      *              1             0             1 
    69 u_2_2_6      *              0             0             1 
    70 r_1_3_5      *              1             0             1 
    71 u_1_3_5      *              0             0             1 
    72 r_2_3_5      *              1             0             1 
    73 u_2_3_5      *              0             0             1 
    74 r_1_3_6      *              1             0             1 
    75 u_1_3_6      *              0             0             1 
    76 r_2_3_6      *              1             0             1 
    77 u_2_3_6      *              0             0             1 
    78 r_1_4_5      *              1             0             1 
    79 u_1_4_5      *              0             0             1 
    80 r_2_4_5      *              1             0             1 
    81 u_2_4_5      *              0             0             1 
    82 r_1_4_6      *              1             0             1 
    83 u_1_4_6      *              0             0             1 
    84 r_2_4_6      *              1             0             1 
    85 u_2_4_6      *              0             0             1 
    86 r_1_6_7      *              1             0             1 
    87 u_1_6_7      *              0             0             1 
    88 r_2_6_7      *              1             0             1 
    89 u_2_6_7      *              0             0             1 

Integer feasibility conditions:

KKT.PE: max.abs.err = 4.55e-13 on row 46
        max.rel.err = 1.11e-16 on row 247
        High quality

KKT.PB: max.abs.err = 1.14e-13 on row 30
        max.rel.err = 1.11e-16 on row 30
        High quality

End of output
